22418.0
17,1538,1630,105,1650,1536,742,1287,1192,605,1011,1445,43,948,1414,26,927,1550,739,1097,399,211,969,901,76,1637,1877,1720,584,780,524,1431,1698,1338,589,1196,799,533,1690,1759,1314,1478,85,663,1105,1774,1255,1261,1369,505,1644,74,1309,96,1286,343,892,451,373,583,1351,490,546,274,498,1344,1834,1463,1657,1474,1406,767,617,1379,163,203,757,597,1899,842,764,1146,271,242,157,1540,1472,1615,1187,926,946,1273,721,1731,1599,668,883,323,1623,1605,538,46,1890,694,147,1984,20,113,1660,423,637,1451,1078,307,1849,29,1385,1471,675,1267,432,1206,169,1733,852,1198
